1827
3649
2532
2961
1186
2429
2218
795
2066
3214
2435
2304
3629
1636
785
3203
2131
702
2982
3249
1933
795
891
3294
2740
2343
2782
2489
1868
887
2112
1025
2383
3110
2225
1926
2651
1971
3551
2995
1143
2436
1301
2193
3342
3014
1860
2605
1619
1679
1501
2746
847
1585
1836
1639
3116
2812
2168
1679
1844
3776
2487
3647
1145
920
1430
2505
562
1363
2702
1881
2984
1044
1896
1407
2544
899
1984
318

33293
71739
40194
48707
11784
51082
31993
5063
43509
61299
43420
45436
64480
22897
1657

743
1601
897
1087
263
1140
714
113
971
1368
969
1014
1439
511
37

2573.4

70
149
84
102
25
107
67
11
91
128
91
95
134
48
4
146
94
24
137
141
71
7
35
147
115
82
112
101
90
20
60
45
118
149
96
78
91
85
137
106
32
72
41
62
118
145
48
126
76
53
67
128
1
63
87
74
130
128
82
76
49
144
117
139
35
6
47
124
12
54
109
62
101
27
51
60
117
5
63
12
